SAT
-37 -44 80 28 -49 -19 47 -68 75 -29 -50 -66 -39 5 56 -77 -48 72 -94 36 43 89 -30 18 -62 -46 1 -92 -60 -97 -91 -58 7 -73 51 87 -35 -54 -21 64 65 14 82 -11 -55 -88 22 -9 20 32 -15 69 61 -81 -98 -8 78 -31 -93 71 2 16 84 23 95 -17 67 76 53 34 41 96 79 -24 -63 -40 85 70 -27 -13 57 25 4 99 6 -45 59 -10 -90 -3 26 100 -86 -12 74 33 -38 -52 -83 42 0
